Tried aggregator 2 times.
MIP Presolve eliminated 1794 rows and 235 columns.
MIP Presolve modified 724 coefficients.
Aggregator did 48 substitutions.
Reduced MIP has 1877 rows, 3376 columns, and 12280 nonzeros.
Reduced MIP has 1741 binaries, 2 generals, 0 SOSs, and 0 indicators.
Presolve time = 0.01 sec. (14.34 ticks)
Found incumbent of value 5950.000000 after 0.03 sec. (30.49 ticks)
Probing time = 0.00 sec. (3.70 ticks)
Tried aggregator 2 times.
Aggregator did 2 substitutions.
Reduced MIP has 1875 rows, 3374 columns, and 12276 nonzeros.
Reduced MIP has 1739 binaries, 24 generals, 0 SOSs, and 0 indicators.
Presolve time = 0.01 sec. (8.68 ticks)
Probing fixed 0 vars, tightened 1 bounds.
Probing time = 0.01 sec. (7.14 ticks)
Clique table members: 4200.
MIP emphasis: balance optimality and feasibility.
MIP search method: dynamic search.
Parallel mode: none, using 1 thread.
Root relaxation solution time = 0.07 sec. (109.70 ticks)

        Nodes                                         Cuts/
   Node  Left     Objective  IInf  Best Integer    Best Bound    ItCnt     Gap

*     0+    0                         5950.0000        0.0000     1296  100.00%
      0     0      126.9156   181     5950.0000      126.9156     1296   97.87%
      0     0      128.7097   167     5950.0000      Cuts: 46     2726   97.84%
      0     0      233.7379   167     5950.0000     Cuts: 113     3883   96.07%
      0     0      244.4748   148     5950.0000      Cuts: 91     4450   95.89%
      0     0      244.7207   158     5950.0000      Cuts: 50     4711   95.89%
      0     0      244.7207   151     5950.0000      Cuts: 40     4865   95.89%
      0     0      244.7207   156     5950.0000      Cuts: 41     5044   95.89%
      0     0      244.7207   140     5950.0000      Cuts: 13     5095   95.89%
      0     0      244.7207   146     5950.0000      Cuts: 15     5123   95.89%
